
******************************************************************************
This program contains Ipopt, a library for large-scale nonlinear optimization.
 Ipopt is released as open source code under the Eclipse Public License (EPL).
         For more information visit http://projects.coin-or.org/Ipopt
******************************************************************************

This is Ipopt version 3.12.6, running with linear solver ma57.

Number of nonzeros in equality constraint Jacobian...:       62
Number of nonzeros in inequality constraint Jacobian.:        0
Number of nonzeros in Lagrangian Hessian.............:       56

Reallocating memory for MA57: lfact (894)
Total number of variables............................:       18
                     variables with only lower bounds:       12
                variables with lower and upper bounds:        0
                     variables with only upper bounds:        0
Total number of equality constraints.................:        8
Total number of inequality constraints...............:        0
        inequality constraints with only lower bounds:        0
   inequality constraints with lower and upper bounds:        0
        inequality constraints with only upper bounds:        0

iter    objective    inf_pr   inf_du lg(mu)  ||d||  lg(rg) alpha_du alpha_pr  ls
   0  1.9325249e+01 5.90e+02 2.58e+00  -1.0 0.00e+00    -  0.00e+00 0.00e+00   0
   1  2.2693196e+01 5.87e+02 3.89e+01  -1.0 9.86e+03    -  1.72e-04 5.10e-03h  1
   2  2.8006045e+01 5.85e+02 3.88e+01  -1.0 2.64e+02    -  5.60e-04 2.16e-03h  1
   3  3.6510196e+01 5.83e+02 3.87e+01  -1.0 2.45e+02    -  1.07e-03 3.22e-03h  1
   4  4.9269643e+01 5.81e+02 3.85e+01  -1.0 2.28e+02    -  5.51e-03 4.89e-03h  1
   5  7.0277672e+01 5.76e+02 3.81e+01  -1.0 2.08e+02    -  1.14e-02 8.11e-03h  1
   6  1.5703944e+02 5.56e+02 3.66e+01  -1.0 2.00e+02    -  2.75e-02 3.41e-02h  1
   7  5.3424692e+02 4.65e+02 4.93e+01  -1.0 1.88e+02    -  2.02e-01 1.59e-01h  1
   8  1.5285116e+03 2.09e+02 4.15e+01  -1.0 1.48e+02    -  4.02e-01 5.30e-01h  1
   9  2.3387286e+03 4.38e+01 3.40e+01  -1.0 6.33e+01    -  1.00e+00 1.00e+00h  1
iter    objective    inf_pr   inf_du lg(mu)  ||d||  lg(rg) alpha_du alpha_pr  ls
  10  2.1686816e+03 3.03e+01 2.63e+00  -1.0 4.13e+01    -  1.00e+00 1.00e+00f  1
  11  2.2474987e+03 2.57e+00 6.18e-02  -1.0 1.09e+01    -  1.00e+00 1.00e+00h  1
  12  2.2477304e+03 9.77e-04 3.95e-05  -1.0 1.09e-01    -  1.00e+00 1.00e+00h  1
  13  2.2471453e+03 1.26e-03 1.79e-04  -2.5 4.23e-02    -  1.00e+00 1.00e+00f  1
  14  2.2471299e+03 1.08e-06 2.41e-07  -3.8 1.53e-03    -  1.00e+00 1.00e+00h  1
Reallocating memory for MA57: lfact (959)
  15  2.2471291e+03 2.97e-09 4.18e-10  -5.7 6.60e-05    -  1.00e+00 1.00e+00h  1
  16  2.2471290e+03 6.82e-13 6.39e-14  -8.6 8.16e-07    -  1.00e+00 1.00e+00h  1

Number of Iterations....: 16

                                   (scaled)                 (unscaled)
Objective...............:   2.2471290440181360e+03    2.2471290440181360e+03
Dual infeasibility......:   6.3948846218409017e-14    6.3948846218409017e-14
Constraint violation....:   6.8212102632969618e-13    6.8212102632969618e-13
Complementarity.........:   2.5061149536160962e-09    2.5061149536160962e-09
Overall NLP error.......:   2.5061149536160962e-09    2.5061149536160962e-09


Number of objective function evaluations             = 17
Number of objective gradient evaluations             = 17
Number of equality constraint evaluations            = 17
Number of inequality constraint evaluations          = 0
Number of equality constraint Jacobian evaluations   = 17
Number of inequality constraint Jacobian evaluations = 0
Number of Lagrangian Hessian evaluations             = 16
Total CPU secs in IPOPT (w/o function evaluations)   =      0.007
Total CPU secs in NLP function evaluations           =      0.000

EXIT: Optimal Solution Found.

************************ CUTEst statistics ************************


 Package used            :  IPOPT
 Problem                 :  TENBARS3  
 # variables             =              18
 # constraints           =               8
 # objective functions   =        0.3500000E+02
 # objective gradients   =        0.1800000E+02
 # objective Hessians    =        0.1700000E+02
 # Hessian-vector prdct  =        0.0000000E+00
 # constraints functions =        0.3600000E+02
 # constraints gradients =        0.1900000E+02
 # constraints Hessians  =        0.1700000E+02
 Exit code               =               0
 Final f                 =   0.2247129E+04
 Set up time             =            0.00 seconds
 Solve time              =            0.02 seconds


******************************************************************

System Time =       0.0070000002 s.
